2018 Public Transportation Networks/Problem07/Exercise_2/network.lp
Minimize
X0(0d_X0(1a + X0(1a_X0(1d + X0(1a_X0)2d + X0(1a_X2)0d + X0(1d_X0(2a + X0(2a_X0)1d + X0(2a_X1)0d + X0(2a_X0(2d + X0(2d_X0(3a + X0(3a_X0)0d + X0)0d_X0)1a + X0)1a_X0)1d + X0)1a_X0(2d + X0)1a_X1)0d + X0)1d_X0)2a + X0)2a_X0)2d + X0)2a_X0(1d + X0)2a_X2)0d + X0)2d_X0)3a + X0)3a_X0(0d + X1(0d_X1(1a + X1(1a_X1(1d + X1(1a_X1)2d + X1(1a_X2(0d + X1(1d_X1(2a + X1(2a_X1)1d + X1(2a_X1(2d + X1(2d_X1(3a + X1(3a_X0(2d + X1(3a_X0)1d + X1(3a_X1)0d + X1)0d_X1)1a + X1)1a_X1)1d + X1)1a_X1(2d + X1)1d_X1)2a + X1)2a_X1)2d + X1)2a_X1(1d + X1)2a_X2(0d + X1)2d_X1)3a + X1)3a_X1(0d + X2(0d_X2(1a + X2(1a_X0(1d + X2(1a_X0)2d + X2(1a_X2)0d + X2)0d_X2)1a + X2)1a_X1)2d + X2)1a_X1(1d + X2)1a_X2(0d

Subject To
X1(2d_X1(3a + X1(3a_X1)0d + X1)0d_X1)1a + X1)1a_X1(2d  - 10z0 = -28
X2(0d_X2(1a + X2(1a_X2)0d + X2)0d_X2)1a + X2)1a_X2(0d  - 10z1 = -20
X0(0d_X0(1a + X0(1a_X2)0d + X0)2d_X0)3a + X0)3a_X0(0d + X2(0d_X2(1a + X2(1a_X0)2d + X2)0d_X2)1a + X2)1a_X2(0d  - 10z2 = -40
X0(0d_X0(1a + X0(1a_X0)2d + X0)2d_X0)3a + X0)3a_X0(0d  - 10z3 = -20
X0(0d_X0(1a + X0(1a_X0(1d + X0(1d_X0(2a + X0(2a_X0(2d + X0(2d_X0(3a + X0(3a_X0)0d + X0)1a_X1)0d + X0)1d_X0)2a + X0)2a_X2)0d + X0)2d_X0)3a + X0)3a_X0(0d + X1(2d_X1(3a + X1(3a_X0)1d + X1)0d_X1)1a + X1)1a_X1(2d + X2(0d_X2(1a + X2(1a_X0)2d + X2)0d_X2)1a + X2)1a_X2(0d  - 10z4 = -99
X0(0d_X0(1a + X0(1a_X0(1d + X0(1d_X0(2a + X0(2a_X1)0d + X0)1d_X0)2a + X0)2a_X2)0d + X0)2d_X0)3a + X0)3a_X0(0d + X1(2d_X1(3a + X1(3a_X0)1d + X1)0d_X1)1a + X1)1a_X1(2d + X2(0d_X2(1a + X2(1a_X0)2d + X2)0d_X2)1a + X2)1a_X2(0d  - 10z5 = -84
X0(0d_X0(1a + X0(1a_X0(1d + X0(1d_X0(2a + X0(2a_X0)1d + X0)1d_X0)2a + X0)2a_X2)0d + X0)2d_X0)3a + X0)3a_X0(0d + X2(0d_X2(1a + X2(1a_X0)2d + X2)0d_X2)1a + X2)1a_X2(0d  - 10z6 = -56
- X0(0d_X0(1a - X0(1a_X0(1d - X0)2d_X0)3a - X0)3a_X0(0d + X2(1a_X0(1d - X2(1a_X0)2d  - 10z7 = 18
X0)1d_X0)2a + X0)2a_X2)0d + X1(1d_X1(2a + X1(2a_X1(2d + X1(2d_X1(3a + X1(3a_X0)1d + X2)0d_X2)1a + X2)1a_X1(1d  - 10z8 = -38
X1(1d_X1(2a + X1(2a_X1)1d + X1)1d_X1)2a + X1)2a_X2(0d + X2)1a_X1(1d - X2)1a_X2(0d  - 10z9 = -14
X1(1d_X1(2a + X1(2a_X1)1d + X1)1d_X1)2a + X1)2a_X1(1d  - 10z10 = -14
X1(0d_X1(1a + X1(1a_X2(0d + X1(1d_X1(2a + X1(2a_X1)1d + X1)1d_X1)2a + X1)2a_X1)2d + X1)2d_X1)3a + X1)3a_X1(0d + X2)1a_X1(1d - X2)1a_X2(0d  - 10z11 = -26
X1(0d_X1(1a + X1(1a_X1)2d + X1)2d_X1)3a + X1)3a_X1(0d  - 10z12 = -14
X1(0d_X1(1a + X1(1a_X1(1d + X1(1d_X1(2a + X1(2a_X1)1d + X1)1d_X1)2a + X1)2a_X1)2d + X1)2d_X1)3a + X1)3a_X1(0d  - 10z13 = -24
- X1(1d_X1(2a - X1(2a_X1)1d - X1)1d_X1)2a - X1)2a_X1)2d - X2)1a_X1(1d + X2)1a_X1)2d  - 10z14 = 12
- X0(0d_X0(1a - X0(1a_X0(1d + X0)2a_X0(1d - X0)2a_X2)0d - X0)2d_X0)3a - X0)3a_X0(0d - X2(0d_X2(1a - X2(1a_X0)2d - X2)0d_X2)1a - X2)1a_X2(0d  - 10z15 = 38
X0)2a_X0)2d - X0)2a_X2)0d - X2(0d_X2(1a - X2(1a_X0)2d - X2)0d_X2)1a - X2)1a_X2(0d  - 10z16 = 22
- X0(0d_X0(1a - X0(1a_X0(1d - X0(1d_X0(2a - X0(2a_X0(2d - X0)1d_X0)2a - X0)2a_X2)0d - X0)2d_X0)3a - X0)3a_X0(0d + X1(3a_X0(2d - X1(3a_X0)1d - X2(0d_X2(1a - X2(1a_X0)2d - X2)0d_X2)1a - X2)1a_X2(0d  - 10z17 = 54
- X0)1d_X0)2a - X0)2a_X2)0d - X1(1d_X1(2a - X1(2a_X1)1d - X1(2d_X1(3a - X1(3a_X0)1d - X1)1a_X1(2d + X1)1a_X1)1d - X2)0d_X2)1a - X2)1a_X1(1d  - 10z18 = 42
- X0(0d_X0(1a - X0(1a_X0(1d - X0(1d_X0(2a - X0(2a_X0(2d + X0)1a_X0(2d - X0)1a_X1)0d - X0)1d_X0)2a - X0)2a_X2)0d - X0)2d_X0)3a - X0)3a_X0(0d - X1(2d_X1(3a - X1(3a_X0)1d - X1)0d_X1)1a - X1)1a_X1(2d - X2(0d_X2(1a - X2(1a_X0)2d - X2)0d_X2)1a - X2)1a_X2(0d  - 10z19 = 82
X0)1a_X0)1d - X0)1a_X1)0d - X1(2d_X1(3a - X1(3a_X0)1d - X1)0d_X1)1a - X1)1a_X1(2d  - 10z20 = 30

Bounds
0 <= X0(0d_X0(1a <= 0
0 <= X0(1a_X0(1d <= 1
0 <= X0(1a_X0)2d <= 9
0 <= X0(1a_X2)0d <= 9
0 <= X0(1d_X0(2a <= 0
0 <= X0(2a_X0)1d <= 9
0 <= X0(2a_X1)0d <= 9
0 <= X0(2a_X0(2d <= 1
0 <= X0(2d_X0(3a <= 0
0 <= X0(3a_X0)0d <= 9
0 <= X0)0d_X0)1a <= 0
0 <= X0)1a_X0)1d <= 1
0 <= X0)1a_X0(2d <= 9
0 <= X0)1a_X1)0d <= 9
0 <= X0)1d_X0)2a <= 0
0 <= X0)2a_X0)2d <= 1
0 <= X0)2a_X0(1d <= 9
0 <= X0)2a_X2)0d <= 9
0 <= X0)2d_X0)3a <= 0
0 <= X0)3a_X0(0d <= 9
0 <= X1(0d_X1(1a <= 0
0 <= X1(1a_X1(1d <= 1
0 <= X1(1a_X1)2d <= 9
0 <= X1(1a_X2(0d <= 9
0 <= X1(1d_X1(2a <= 0
0 <= X1(2a_X1)1d <= 9
0 <= X1(2a_X1(2d <= 1
0 <= X1(2d_X1(3a <= 0
0 <= X1(3a_X0(2d <= 9
0 <= X1(3a_X0)1d <= 9
0 <= X1(3a_X1)0d <= 9
0 <= X1)0d_X1)1a <= 0
0 <= X1)1a_X1)1d <= 1
0 <= X1)1a_X1(2d <= 9
0 <= X1)1d_X1)2a <= 0
0 <= X1)2a_X1)2d <= 1
0 <= X1)2a_X1(1d <= 9
0 <= X1)2a_X2(0d <= 9
0 <= X1)2d_X1)3a <= 0
0 <= X1)3a_X1(0d <= 9
0 <= X2(0d_X2(1a <= 0
0 <= X2(1a_X0(1d <= 9
0 <= X2(1a_X0)2d <= 9
0 <= X2(1a_X2)0d <= 9
0 <= X2)0d_X2)1a <= 0
0 <= X2)1a_X1)2d <= 9
0 <= X2)1a_X1(1d <= 9
0 <= X2)1a_X2(0d <= 9
-inf <= z0 <= +inf
-inf <= z1 <= +inf
-inf <= z2 <= +inf
-inf <= z3 <= +inf
-inf <= z4 <= +inf
-inf <= z5 <= +inf
-inf <= z6 <= +inf
-inf <= z7 <= +inf
-inf <= z8 <= +inf
-inf <= z9 <= +inf
-inf <= z10 <= +inf
-inf <= z11 <= +inf
-inf <= z12 <= +inf
-inf <= z13 <= +inf
-inf <= z14 <= +inf
-inf <= z15 <= +inf
-inf <= z16 <= +inf
-inf <= z17 <= +inf
-inf <= z18 <= +inf
-inf <= z19 <= +inf
-inf <= z20 <= +inf

General
z0
z1
z2
z3
z4
z5
z6
z7
z8
z9
z10
z11
z12
z13
z14
z15
z16
z17
z18
z19
z20

End
