2018 Public Transportation Networks/Problem07/Exercise_2/network.in
7 3
4
1 2 3 4
13 7 8
4
2 5 6 7
12 5 5
2
3 6
8

10
0 1
2 11
